p cnf 113 13
-22 36 3 66 -5 -61 4 0
8 -26 -83 100 43 28 -84 0
-81 -102 -22 111 -113 -3 42 0
3 -1 -111 62 -41 -8 73 0
-69 4 -27 -41 47 -5 -71 0
-12 40 3 -25 -88 2 107 0
98 66 -38 -58 -111 20 -5 0
-19 -12 -22 30 39 1 -61 0
75 -8 29 -4 80 6 -1 0
11 7 45 -10 -2 -44 5 0
94 15 7 2 56 -16 8 0
-1 -6 -18 62 39 -12 -2 0
-53 -1 -16 -12 40 4 8 0
